
Gurobi 8.1.1 (mac64, Python) logging started Thu Oct  3 23:52:45 2019

Academic license - for non-commercial use only
Optimize a model with 21 rows, 33 columns and 53 nonzeros
Coefficient statistics:
  Matrix range     [1e+00, 3e+01]
  Objective range  [2e+00, 3e+02]
  Bounds range     [0e+00, 0e+00]
  RHS range        [2e+02, 8e+03]
Presolve removed 6 rows and 1 columns
Presolve time: 0.00s
Presolved: 15 rows, 32 columns, 50 nonzeros

Iteration    Objective       Primal Inf.    Dual Inf.      Time
       0   -2.7400000e+33   1.000000e+31   2.740000e+03      0s
      20   -1.1025500e+05   0.000000e+00   0.000000e+00      0s

Solved in 20 iterations and 0.00 seconds
Optimal objective -1.102550000e+05
